NAME          DCAP_2_3_3_300_SS117
ROWS
 N  OBJ
 L  CON1
 L  CON2
 L  CON3
 L  CON4
 L  CON5
 L  CON6
 L  CON7
 L  CON8
 L  CON9
 L  CON10
 L  CON11
 L  CON12
 E  CON13
 E  CON14
 E  CON15
 E  CON16
 E  CON17
 E  CON18
 E  CON19
 E  CON20
 E  CON21
COLUMNS
    x[1,1]    OBJ       6.180167      CON1      1.000000    
    x[1,1]    CON7      -1.000000     CON8      -1.000000   
    x[1,1]    CON9      -1.000000   
    x[1,2]    OBJ       6.563535      CON2      1.000000    
    x[1,2]    CON8      -1.000000     CON9      -1.000000   
    x[1,3]    OBJ       7.443064      CON3      1.000000    
    x[1,3]    CON9      -1.000000   
    x[2,1]    OBJ       6.732585      CON4      1.000000    
    x[2,1]    CON10     -1.000000     CON11     -1.000000   
    x[2,1]    CON12     -1.000000   
    x[2,2]    OBJ       5.039546      CON5      1.000000    
    x[2,2]    CON11     -1.000000     CON12     -1.000000   
    x[2,3]    OBJ       6.054841      CON6      1.000000    
    x[2,3]    CON12     -1.000000   
    MARKER    'MARKER'                'INTORG'
    u[1,1]    OBJ       48.076654     CON1      -1.000000   
    u[1,2]    OBJ       20.066487     CON2      -1.000000   
    u[1,3]    OBJ       32.230043     CON3      -1.000000   
    u[2,1]    OBJ       49.996186     CON4      -1.000000   
    u[2,2]    OBJ       49.466655     CON5      -1.000000   
    u[2,3]    OBJ       27.484319     CON6      -1.000000   
    y[1,1,1]  OBJ       9.030320      CON7      0.777240    
    y[1,1,1]  CON13     1.000000    
    y[1,1,2]  OBJ       8.859769      CON8      0.658686    
    y[1,1,2]  CON14     1.000000    
    y[1,1,3]  OBJ       8.671028      CON9      1.091427    
    y[1,1,3]  CON15     1.000000    
    y[1,2,1]  OBJ       6.315375      CON7      1.183937    
    y[1,2,1]  CON16     1.000000    
    y[1,2,2]  OBJ       8.298729      CON8      0.587903    
    y[1,2,2]  CON17     1.000000    
    y[1,2,3]  OBJ       6.148065      CON9      1.204385    
    y[1,2,3]  CON18     1.000000    
    y[1,3,1]  OBJ       8.364487      CON7      1.472030    
    y[1,3,1]  CON19     1.000000    
    y[1,3,2]  OBJ       8.734218      CON8      0.611284    
    y[1,3,2]  CON20     1.000000    
    y[1,3,3]  OBJ       8.683793      CON9      1.400463    
    y[1,3,3]  CON21     1.000000    
    y[2,1,1]  OBJ       9.668184      CON10     0.777240    
    y[2,1,1]  CON13     1.000000    
    y[2,1,2]  OBJ       7.494026      CON11     0.658686    
    y[2,1,2]  CON14     1.000000    
    y[2,1,3]  OBJ       5.625060      CON12     1.091427    
    y[2,1,3]  CON15     1.000000    
    y[2,2,1]  OBJ       5.352100      CON10     1.183937    
    y[2,2,1]  CON16     1.000000    
    y[2,2,2]  OBJ       5.357850      CON11     0.587903    
    y[2,2,2]  CON17     1.000000    
    y[2,2,3]  OBJ       7.228383      CON12     1.204385    
    y[2,2,3]  CON18     1.000000    
    y[2,3,1]  OBJ       7.907747      CON10     1.472030    
    y[2,3,1]  CON19     1.000000    
    y[2,3,2]  OBJ       6.069965      CON11     0.611284    
    y[2,3,2]  CON20     1.000000    
    y[2,3,3]  OBJ       8.386824      CON12     1.400463    
    y[2,3,3]  CON21     1.000000    
    z[1,1]    OBJ       968.894851    CON13     1.000000    
    z[1,2]    OBJ       547.225518    CON14     1.000000    
    z[1,3]    OBJ       865.176695    CON15     1.000000    
    z[2,1]    OBJ       936.077430    CON16     1.000000    
    z[2,2]    OBJ       621.690883    CON17     1.000000    
    z[2,3]    OBJ       869.127080    CON18     1.000000    
    z[3,1]    OBJ       657.558804    CON19     1.000000    
    z[3,2]    OBJ       546.941501    CON20     1.000000    
    z[3,3]    OBJ       700.096001    CON21     1.000000    
    MARKER    'MARKER'                 'INTEND'
RHS
    RHS       CON1      -0.000000     CON2      -0.000000   
    RHS       CON3      -0.000000     CON4      -0.000000   
    RHS       CON5      -0.000000     CON6      -0.000000   
    RHS       CON7      -0.000000     CON8      -0.000000   
    RHS       CON9      -0.000000     CON10     -0.000000   
    RHS       CON11     -0.000000     CON12     -0.000000   
    RHS       CON13     1.000000      CON14     1.000000    
    RHS       CON15     1.000000      CON16     1.000000    
    RHS       CON17     1.000000      CON18     1.000000    
    RHS       CON19     1.000000      CON20     1.000000    
    RHS       CON21     1.000000    
BOUNDS
 BV BOUND     u[1,1]  
 BV BOUND     u[1,2]  
 BV BOUND     u[1,3]  
 BV BOUND     u[2,1]  
 BV BOUND     u[2,2]  
 BV BOUND     u[2,3]  
 BV BOUND     y[1,1,1]
 BV BOUND     y[1,1,2]
 BV BOUND     y[1,1,3]
 BV BOUND     y[1,2,1]
 BV BOUND     y[1,2,2]
 BV BOUND     y[1,2,3]
 BV BOUND     y[1,3,1]
 BV BOUND     y[1,3,2]
 BV BOUND     y[1,3,3]
 BV BOUND     y[2,1,1]
 BV BOUND     y[2,1,2]
 BV BOUND     y[2,1,3]
 BV BOUND     y[2,2,1]
 BV BOUND     y[2,2,2]
 BV BOUND     y[2,2,3]
 BV BOUND     y[2,3,1]
 BV BOUND     y[2,3,2]
 BV BOUND     y[2,3,3]
 BV BOUND     z[1,1]  
 BV BOUND     z[1,2]  
 BV BOUND     z[1,3]  
 BV BOUND     z[2,1]  
 BV BOUND     z[2,2]  
 BV BOUND     z[2,3]  
 BV BOUND     z[3,1]  
 BV BOUND     z[3,2]  
 BV BOUND     z[3,3]  
ENDATA
